balance_scale_one_hot/balance_scale_lin_find_b.lp
\ Model balance_scale_lin_find_b
\ LP format - for model browsing. Use MPS format to capture full model detail.
Minimize
  0 d_0_0 + 0 d_0_1 + 0 d_0_2 + 0 d_0_3 + 0 d_1_0 + 0 d_1_1 + 0 d_1_2
   + 0 d_1_3 + 0 o_0_3_0_d_3_0 + 0 o_1_3_0_d_3_0 + 0 o_0_3_0
Subject To
 R0: 0.6379808783531189 i_0_0 - 0.0734050422906876 i_0_1
   + 0.2128722369670868 i_0_2 - 0.4645160734653473 i_0_3 + x_0_0
   = -0.210166871547699
 R1: 0.7547593116760254 i_0_0 - 0.1572583615779877 i_0_1
   - 0.6652182340621948 i_0_2 - 0.3160578608512878 i_0_3 + x_0_1
   = 0.0858671143651009
 R2: 0.0488921925425529 i_0_0 + 0.3539673686027527 i_0_1
   - 0.1225238740444183 i_0_2 - 0.576159656047821 i_0_3 + x_0_2
   = 0.2365366667509079
 R3: - 0.4292656183242798 i_0_0 - 0.9992403984069824 i_0_1
   + 0.3791025280952454 i_0_2 - 0.0167894139885902 i_0_3 + x_0_3
   = 0.1061055436730385
 R4: - 0.6261598467826843 o_0_0 - 0.0395292453467846 o_0_1
   + 0.5513048768043518 o_0_2 - 0.6923106908798218 o_0_3 + x_1_0
   = 0.0225507877767086
 R5: 0.1295101195573807 o_0_0 - 0.2255196571350098 o_0_1
   - 0.2794803977012634 o_0_2 + 0.0186264179646969 o_0_3 + x_1_1
   = -0.1888785809278488
 R6: 0.2555565536022186 o_0_0 - 1.014731645584106 o_0_1
   - 0.9290311336517334 o_0_2 + 0.2330098152160645 o_0_3 + x_1_2
   = -0.1033330261707306
 R7: 0.4041726589202881 o_0_0 + 0.7620981335639954 o_0_1
   + 0.6888844966888428 o_0_2 - 0.591465950012207 o_0_3 + x_1_3
   = 0.1664230972528458
 R8: - 0.9111555814743042 o_1_0 + 0.5999428033828735 o_1_1
   + 0.7249069809913635 o_1_2 - 1.221896409988403 o_1_3 + x_2_0
   = 0.1058313548564911
 R9: - 0.5837674140930176 o_1_0 - 0.5590058565139771 o_1_1
   + 0.2299712598323822 o_1_2 + 0.3597694337368012 o_1_3 + x_2_1
   = -0.1619614809751511
 R10: 0.1692324876785278 o_1_0 - 0.4968607425689697 o_1_1
   - 0.8652662038803101 o_1_2 - 0.0862065404653549 o_1_3 + x_2_2
   = 0.071038082242012
 R11: - x_2_0 + x_3_0 + o_1_3_0 = 0
 R12: - x_2_1 + x_3_1 + o_1_3_0 = 0
 R13: - x_2_2 + x_3_2 + o_1_3_0 = 0
 OneHot_3_0_a: - x_3_0 + 999999.00000001 o_3_0 >= 0.00999999
 OneHot_3_0_b: x_3_0 - 999999 o_3_0 >= -999999
 OneHot_3_1_a: - x_3_1 + 999999.00000001 o_3_1 >= 0.00999999
 OneHot_3_1_b: x_3_1 - 999999 o_3_1 >= -999999
 OneHot_3_2_a: - x_3_2 + 999999.00000001 o_3_2 >= 0.00999999
 OneHot_3_2_b: x_3_2 - 999999 o_3_2 >= -999999
 BalFind: o_3_1 = 1
Bounds
 1 <= i_0_0 <= 5
 1 <= i_0_1 <= 5
 1 <= i_0_2 <= 5
 1 <= i_0_3 <= 5
 x_0_0 free
 x_0_1 free
 x_0_2 free
 x_0_3 free
 o_0_0 free
 o_0_1 free
 o_0_2 free
 o_0_3 free
 x_1_0 free
 x_1_1 free
 x_1_2 free
 x_1_3 free
 o_1_0 free
 o_1_1 free
 o_1_2 free
 o_1_3 free
 x_2_0 free
 x_2_1 free
 x_2_2 free
 x_3_0 free
 x_3_1 free
 x_3_2 free
 o_0_3_0 free
 o_1_3_0 free
Binaries
 d_0_0 d_0_1 d_0_2 d_0_3 d_1_0 d_1_1 d_1_2 d_1_3 o_0_3_0_d_3_0
 o_1_3_0_d_3_0 o_3_0 o_3_1 o_3_2
General Constraints
 ReLU_0_0: o_0_0 = MAX ( x_0_0 , 0 )
 ReLU_0_1: o_0_1 = MAX ( x_0_1 , 0 )
 ReLU_0_2: o_0_2 = MAX ( x_0_2 , 0 )
 ReLU_0_3: o_0_3 = MAX ( x_0_3 , 0 )
 ReLU_1_0: o_1_0 = MAX ( x_1_0 , 0 )
 ReLU_1_1: o_1_1 = MAX ( x_1_1 , 0 )
 ReLU_1_2: o_1_2 = MAX ( x_1_2 , 0 )
 ReLU_1_3: o_1_3 = MAX ( x_1_3 , 0 )
 GC8: o_0_3_0 = MAX ( x_2_0 , x_2_1 )
 GC9: o_1_3_0 = MAX ( o_0_3_0 , x_2_2 )
End
